unsat
(forall ((A (Array (_ BitVec 12) (_ BitVec 8)))
         (B (_ BitVec 7))
         (C (_ BitVec 7))
         (D (_ BitVec 1))
         (E (_ BitVec 1))
         (F (_ BitVec 1))
         (G (_ BitVec 1))
         (H (_ BitVec 4))
         (I (_ BitVec 1))
         (J (_ BitVec 1))
         (K (_ BitVec 1))
         (L (_ BitVec 1))
         (M (_ BitVec 1))
         (N (_ BitVec 1))
         (O (_ BitVec 1))
         (P (_ BitVec 1))
         (Q (_ BitVec 1))
         (R (_ BitVec 1))
         (S (_ BitVec 4))
         (T (_ BitVec 1))
         (U (_ BitVec 32))
         (V (_ BitVec 1))
         (W (_ BitVec 32))
         (X (_ BitVec 1))
         (Y (_ BitVec 1))
         (Z (_ BitVec 10))
         (A1 (_ BitVec 1))
         (B1 (_ BitVec 1))
         (C1 (_ BitVec 5))
         (D1 (_ BitVec 1))
         (E1 (_ BitVec 1))
         (F1 (_ BitVec 1))
         (G1 (_ BitVec 1))
         (H1 (_ BitVec 1))
         (I1 (_ BitVec 4))
         (J1 (_ BitVec 1))
         (K1 (_ BitVec 32))
         (L1 (_ BitVec 32))
         (M1 (_ BitVec 32))
         (N1 (_ BitVec 1))
         (O1 (_ BitVec 1))
         (P1 (_ BitVec 1))
         (Q1 (_ BitVec 1))
         (R1 (_ BitVec 3))
         (S1 (_ BitVec 1))
         (T1 (_ BitVec 1))
         (U1 (_ BitVec 32))
         (V1 (_ BitVec 32))
         (W1 (_ BitVec 1))
         (X1 (_ BitVec 32))
         (Y1 (_ BitVec 5))
         (Z1 (_ BitVec 1))
         (A2 (_ BitVec 15))
         (B2 (_ BitVec 1))
         (C2 (_ BitVec 1))
         (D2 (_ BitVec 32))
         (E2 (_ BitVec 7))
         (F2 (_ BitVec 3))
         (G2 (_ BitVec 1))
         (H2 (_ BitVec 1))
         (I2 (_ BitVec 32))
         (J2 (_ BitVec 64))
         (K2 (_ BitVec 1))
         (L2 (_ BitVec 1))
         (M2 (_ BitVec 2))
         (N2 (_ BitVec 8))
         (O2 (_ BitVec 1))
         (P2 (_ BitVec 1))
         (Q2 (_ BitVec 1))
         (R2 (_ BitVec 1))
         (S2 (_ BitVec 2))
         (T2 (_ BitVec 8))
         (U2 (_ BitVec 1))
         (V2 (_ BitVec 32))
         (W2 (_ BitVec 3))
         (X2 (_ BitVec 3))
         (Y2 (_ BitVec 32))
         (Z2 (_ BitVec 1))
         (A3 (_ BitVec 32))
         (B3 (_ BitVec 2))
         (C3 (_ BitVec 1))
         (D3 (_ BitVec 1))
         (E3 (_ BitVec 30))
         (F3 (_ BitVec 10))
         (G3 (_ BitVec 5))
         (H3 (_ BitVec 1))
         (I3 (_ BitVec 1))
         (J3 (_ BitVec 1))
         (K3 (_ BitVec 1))
         (L3 (_ BitVec 1))
         (M3 (_ BitVec 1))
         (N3 (_ BitVec 32))
         (O3 (_ BitVec 5))
         (P3 (_ BitVec 1))
         (Q3 (_ BitVec 32))
         (R3 (_ BitVec 3))
         (S3 (_ BitVec 1))
         (T3 (_ BitVec 1))
         (U3 (_ BitVec 7))
         (V3 (_ BitVec 1))
         (W3 (_ BitVec 1))
         (X3 (_ BitVec 32))
         (Y3 (_ BitVec 8))
         (Z3 (_ BitVec 1))
         (A4 (_ BitVec 1))
         (B4 (_ BitVec 5))
         (C4 (_ BitVec 27))
         (D4 (_ BitVec 1))
         (E4 (_ BitVec 32))
         (F4 (_ BitVec 23))
         (G4 (_ BitVec 1))
         (H4 (_ BitVec 1))
         (I4 (_ BitVec 1))
         (J4 (_ BitVec 1))
         (K4 (_ BitVec 1))
         (L4 (_ BitVec 5))
         (M4 (_ BitVec 30))
         (N4 (_ BitVec 1))
         (O4 (_ BitVec 5))
         (P4 (_ BitVec 1))
         (Q4 (_ BitVec 32))
         (R4 (_ BitVec 1))
         (S4 (_ BitVec 1))
         (T4 (_ BitVec 1))
         (U4 (_ BitVec 8))
         (V4 (_ BitVec 32))
         (W4 (_ BitVec 1))
         (X4 (_ BitVec 2))
         (Y4 (_ BitVec 1))
         (Z4 (_ BitVec 1))
         (A5 (_ BitVec 1))
         (B5 (_ BitVec 1))
         (C5 (_ BitVec 6))
         (D5 (_ BitVec 1))
         (E5 (_ BitVec 1))
         (F5 (_ BitVec 7))
         (G5 (_ BitVec 6))
         (H5 (_ BitVec 1))
         (I5 (_ BitVec 37))
         (J5 (_ BitVec 1))
         (K5 (_ BitVec 1))
         (L5 (_ BitVec 32))
         (M5 (_ BitVec 1))
         (N5 (_ BitVec 1))
         (O5 (_ BitVec 1))
         (P5 (_ BitVec 4))
         (Q5 (_ BitVec 1))
         (R5 (_ BitVec 1))
         (S5 (_ BitVec 1))
         (T5 (_ BitVec 1))
         (U5 (_ BitVec 1))
         (V5 (_ BitVec 1))
         (W5 (_ BitVec 1))
         (X5 (_ BitVec 5))
         (Y5 (_ BitVec 1))
         (Z5 (_ BitVec 1))
         (A6 (_ BitVec 1))
         (B6 (_ BitVec 4))
         (C6 (_ BitVec 1))
         (D6 (_ BitVec 7))
         (E6 (_ BitVec 1))
         (F6 (_ BitVec 1))
         (G6 (_ BitVec 1))
         (H6 (_ BitVec 1))
         (I6 (_ BitVec 30))
         (J6 (_ BitVec 1))
         (K6 (_ BitVec 1))
         (L6 (_ BitVec 1))
         (M6 (_ BitVec 1))
         (N6 (_ BitVec 1))
         (O6 (_ BitVec 1))
         (P6 (_ BitVec 4))
         (Q6 (_ BitVec 1))
         (R6 (_ BitVec 1))
         (S6 (_ BitVec 1))
         (T6 (_ BitVec 32))
         (U6 (_ BitVec 1))
         (V6 (_ BitVec 1))
         (W6 (_ BitVec 1))
         (X6 (_ BitVec 1))
         (Y6 (_ BitVec 4))
         (Z6 (_ BitVec 1))
         (A7 (_ BitVec 4))
         (B7 (_ BitVec 1))
         (C7 (_ BitVec 6))
         (D7 (_ BitVec 1))
         (E7 (_ BitVec 1))
         (F7 (_ BitVec 1))
         (G7 (_ BitVec 1))
         (H7 (_ BitVec 1))
         (I7 (_ BitVec 1))
         (J7 (_ BitVec 1))
         (K7 (_ BitVec 1))
         (L7 (_ BitVec 2))
         (M7 (_ BitVec 1))
         (N7 (_ BitVec 1))
         (O7 (_ BitVec 1))
         (P7 (_ BitVec 1))
         (Q7 (_ BitVec 1))
         (R7 (Array (_ BitVec 7) (_ BitVec 27)))
         (S7 (_ BitVec 1))
         (T7 (_ BitVec 128))
         (U7 (_ BitVec 1))
         (V7 (_ BitVec 1))
         (W7 (_ BitVec 4))
         (X7 (_ BitVec 1))
         (Y7 (_ BitVec 1))
         (Z7 (_ BitVec 1))
         (A8 (_ BitVec 1))
         (B8 (_ BitVec 1))
         (C8 (_ BitVec 1))
         (D8 (_ BitVec 2))
         (E8 (_ BitVec 1))
         (F8 (Array (_ BitVec 5) (_ BitVec 32)))
         (G8 (_ BitVec 32))
         (H8 (_ BitVec 1))
         (I8 (_ BitVec 1))
         (J8 (_ BitVec 1))
         (K8 (_ BitVec 32))
         (L8 (_ BitVec 1))
         (M8 (_ BitVec 1))
         (N8 (_ BitVec 1))
         (O8 (_ BitVec 23))
         (P8 (_ BitVec 1))
         (Q8 (_ BitVec 1))
         (R8 (_ BitVec 32))
         (S8 (_ BitVec 32))
         (T8 (_ BitVec 4))
         (U8 (_ BitVec 32))
         (V8 (_ BitVec 1))
         (W8 (_ BitVec 1))
         (X8 (_ BitVec 30))
         (Y8 (_ BitVec 1))
         (Z8 (_ BitVec 32))
         (A9 (_ BitVec 1))
         (B9 (_ BitVec 1))
         (C9 (_ BitVec 1))
         (D9 (_ BitVec 1))
         (E9 (_ BitVec 37))
         (F9 (_ BitVec 1))
         (G9 (_ BitVec 1))
         (H9 (_ BitVec 1))
         (I9 (_ BitVec 1))
         (J9 (_ BitVec 1))
         (K9 (_ BitVec 1))
         (L9 (_ BitVec 6))
         (M9 (_ BitVec 27))
         (N9 (_ BitVec 30))
         (O9 (_ BitVec 1))
         (P9 (_ BitVec 1))
         (Q9 (_ BitVec 1))
         (R9 (_ BitVec 1))
         (S9 (_ BitVec 32))
         (T9 (_ BitVec 1))
         (U9 (_ BitVec 1))
         (V9 (_ BitVec 1))
         (W9 (_ BitVec 5))
         (X9 (_ BitVec 1))
         (Y9 (_ BitVec 1))
         (Z9 (_ BitVec 5))
         (A10 (_ BitVec 32))
         (B10 (_ BitVec 1))
         (C10 (_ BitVec 1))
         (D10 (_ BitVec 1))
         (E10 (_ BitVec 1))
         (F10 (_ BitVec 32))
         (G10 (_ BitVec 1))
         (H10 (_ BitVec 1)))
  (! (let ((a!1 (or ((_ bit2bool 31) D2)
                    ((_ bit2bool 0) A6)
                    (not (= ((_ extract 26 23) D2) #x7))
                    (not (= S4 #b1))))
           (a!2 (or (not (= W3 #b0))
                    ((_ bit2bool 31) D2)
                    (= ((_ extract 30 28) D2) #b111)
                    (= ((_ extract 24 23) D2) #b00)
                    (not ((_ bit2bool 25) D2))
                    (not (= S4 #b1))
                    (not (= ((_ extract 26 26) D2) #b1))))
           (a!3 (or ((_ bit2bool 31) D2)
                    (not ((_ bit2bool 0) M3))
                    (not (= S4 #b1))
                    (not (= ((_ extract 25 25) D2) #b1))))
           (a!4 (or (not ((_ bit2bool 1) U3))
                    (not (= W3 #b0))
                    ((_ bit2bool 31) D2)
                    (not ((_ bit2bool 2) U3))
                    (not ((_ bit2bool 3) U3))
                    (not (= ((_ extract 26 23) D2) #x7))
                    (not (= S4 #b1))))
           (a!5 (or (not ((_ bit2bool 1) U3))
                    ((_ bit2bool 31) D2)
                    ((_ bit2bool 0) J6)
                    (not (= N6 #b0))
                    (not ((_ bit2bool 2) U3))
                    (not ((_ bit2bool 3) U3))
                    (= ((_ extract 4 0) U3) #b01111)
                    (not (= S4 #b1))
                    (not ((_ bit2bool 27) D2))
                    (not (= ((_ extract 26 26) D2) #b1))))
           (a!6 (or (not (= W3 #b0))
                    ((_ bit2bool 31) D2)
                    (not ((_ bit2bool 25) D2))
                    (not (= S4 #b1))
                    (not (= ((_ extract 26 26) D2) #b1))
                    (not (= ((_ extract 24 23) D2) #b01))))
           (a!7 (or (not (= W3 #b0))
                    ((_ bit2bool 31) D2)
                    (not (= ((_ extract 26 22) D2) #b11110))
                    (not (= S4 #b1))))
           (a!8 (or (not ((_ bit2bool 0) P8))
                    (not (= W3 #b1))
                    (not (= N8 #b0))
                    (not (= ((_ extract 24 23) D2) #b00))
                    (not (= S4 #b1)))))
     (let ((a!9 (and (or (not ((_ bit2bool 1) U3))
                         (= W3 #b0)
                         (not ((_ bit2bool 2) U3))
                         (not ((_ bit2bool 3) U3))
                         (not ((_ bit2bool 0) P8))
                         (not (= N8 #b0))
                         (= ((_ extract 26 23) D2) #x7)
                         (= ((_ extract 26 22) D2) #b11110)
                         (= ((_ extract 26 23) D2) #xd)
                         (not (= S4 #b1)))
                     (= R4 #b0)
                     (or (= S4 #b0) (not (= A8 #b1)))
                     (not (= B2 #b1))
                     (or (= K5 #b0) (= W1 #b0))
                     (or (= K5 #b0) (= A9 #b0))
                     (or (= K5 #b0) (= G7 #b0))
                     (or (not ((_ bit2bool 0) T1))
                         (= H5 #b0)
                         (not ((_ bit2bool 0) P8)))
                     (or (= X4 #b00) (= K5 #b0))
                     (or (= S4 #b0) (not (= W3 #b0)) (not ((_ bit2bool 0) T1)))
                     (or (= H9 #b1)
                         (not ((_ bit2bool 0) T1))
                         (not ((_ bit2bool 0) P8)))
                     (or ((_ bit2bool 0) M3) (not ((_ bit2bool 0) K6)))
                     (or (not (= T9 #b1)) (= S4 #b0))
                     (or (not (= K5 #b1)) (= D10 #b1))
                     (or (= S3 #b0)
                         ((_ bit2bool 0) G)
                         (not ((_ bit2bool 0) P8))
                         (not ((_ bit2bool 0) M8)))
                     (or (= C7 #b000000)
                         (not ((_ bit2bool 0) P8))
                         (not ((_ bit2bool 0) S4)))
                     (or ((_ bit2bool 0) V8)
                         (not (= P8 #b1))
                         (= ((_ extract 31 31) D2) #b0)
                         (not ((_ bit2bool 0) S4))
                         (not (= N8 #b0)))
                     (or (not ((_ bit2bool 0) H9)) (= W3 #b0))
                     (or (= ((_ extract 3 1) U3) #b111)
                         (not ((_ bit2bool 0) S4))
                         (not ((_ bit2bool 0) U9)))
                     (or (not (= W3 #b0))
                         (not ((_ bit2bool 0) P8))
                         (not (= I4 #b1))
                         (not (= N8 #b1)))
                     (or (not ((_ bit2bool 0) K9)) (= S4 #b0))
                     (or (not ((_ bit2bool 0) H4)) (= T4 #b0))
                     (or (not (= P8 #b1))
                         (not ((_ bit2bool 0) S4))
                         (not (= U9 #b1))
                         (not ((_ bit2bool 25) D2)))
                     (or ((_ bit2bool 31) D2) (not (= V8 #b1)))
                     (or (= X4 #b00) (not (= H7 #b0)))
                     (or ((_ bit2bool 3) P5) (not (= V8 #b1)))
                     (or (not (= W3 #b1)) (not (= V8 #b1)))
                     (or (not (= T4 #b0)) (not (= H7 #b1)) (not (= R9 #b1)))
                     (or ((_ bit2bool 24) D2)
                         ((_ bit2bool 23) D2)
                         (not (= W3 #b1))
                         (not (= N8 #b0))
                         (not ((_ bit2bool 0) W1)))
                     (or (not (= O6 #b0))
                         ((_ bit2bool 0) J6)
                         (not ((_ bit2bool 0) N6)))
                     (or ((_ bit2bool 31) D2)
                         (not ((_ bit2bool 28) D2))
                         (not ((_ bit2bool 29) D2))
                         (not ((_ bit2bool 30) D2))
                         (not (= S4 #b1))
                         (= ((_ extract 3 1) U3) #b111))
                     (or ((_ bit2bool 31) D2)
                         (not ((_ bit2bool 0) H9))
                         (not (= S4 #b1)))
                     (or ((_ bit2bool 31) D2)
                         ((_ bit2bool 0) J6)
                         (= ((_ extract 4 0) U3) #b11111)
                         (not (= S4 #b1))
                         (not ((_ bit2bool 0) N6))
                         (not ((_ bit2bool 27) D2))
                         (not ((_ bit2bool 28) D2))
                         (not ((_ bit2bool 29) D2))
                         (not ((_ bit2bool 30) D2)))
                     a!1
                     (or (not ((_ bit2bool 1) U3))
                         ((_ bit2bool 31) D2)
                         (not ((_ bit2bool 2) U3))
                         (not ((_ bit2bool 3) U3))
                         (not ((_ bit2bool 0) S4))
                         (= ((_ extract 30 28) D2) #b111))
                     (or (not (= A4 #b1)) (not (= H7 #b0)))
                     a!2
                     (or (not ((_ bit2bool 1) U3))
                         (not (= W3 #b0))
                         (not ((_ bit2bool 0) E8))
                         (not ((_ bit2bool 2) U3))
                         (not ((_ bit2bool 3) U3))
                         (not (= S4 #b1)))
                     a!3
                     a!4
                     a!5
                     a!6
                     (or (not ((_ bit2bool 0) S6))
                         (not (= W4 #b1))
                         (not ((_ bit2bool 0) L6)))
                     (or ((_ bit2bool 0) J6) (not (= N6 #b0)) (not (= P7 #b1)))
                     (or (not ((_ bit2bool 0) W1))
                         (not ((_ bit2bool 25) D2))
                         (= S4 #b0))
                     a!7
                     (or (= C7 #b000000)
                         (= F #b0)
                         ((_ bit2bool 31) D2)
                         (not ((_ bit2bool 0) S4)))
                     (or (= F #b0) (not (= V8 #b1)) (not (= N8 #b1)))
                     (or (not ((_ bit2bool 0) I9)) (= Q7 #b0))
                     (or (= Q7 #b0) (not (= W4 #b1)))
                     (or (= ((_ extract 3 1) F5) #b111)
                         (not ((_ bit2bool 6) F5)))
                     (or ((_ bit2bool 0) N1) (not ((_ bit2bool 0) W1)))
                     (or (not ((_ bit2bool 0) G)) (not (= V8 #b1)))
                     (or (not (= P8 #b0))
                         (= F #b0)
                         (not ((_ bit2bool 0) G))
                         (= E5 #b0))
                     (or (= F #b0)
                         ((_ bit2bool 0) G)
                         (not (= W3 #b1))
                         (= ((_ extract 31 31) D2) #b0)
                         (not ((_ bit2bool 0) S4)))
                     (or (= F #b0)
                         (not ((_ bit2bool 0) G))
                         (not ((_ bit2bool 0) S4))
                         (not (= N8 #b0)))
                     (or (not (= H9 #b1)) (= S4 #b0) (not (= N8 #b1)))
                     (or (not (= W3 #b0))
                         (not ((_ bit2bool 0) G))
                         (not ((_ bit2bool 0) W1)))
                     (or (not ((_ bit2bool 0) P8))
                         (not (= W3 #b1))
                         (not (= N8 #b0))
                         (= ((_ extract 26 25) D2) #b11)
                         (= ((_ extract 26 23) D2) #x7)
                         (not (= S4 #b1)))
                     (or ((_ bit2bool 31) D2)
                         (not (= P8 #b0))
                         (= R #b1)
                         (= F #b0))
                     (or ((_ bit2bool 0) G)
                         (= W3 #b0)
                         (not ((_ bit2bool 0) W1))
                         (not (= S4 #b1)))
                     (or (not (= J4 #b1)) (not (= H7 #b0)))
                     (or (= F #b0)
                         (not ((_ bit2bool 0) G))
                         ((_ bit2bool 0) N1)
                         (not (= S4 #b1)))
                     (or (= F #b0)
                         (not (= W3 #b0))
                         (not ((_ bit2bool 0) G))
                         (not (= I4 #b1)))
                     (or (= H9 #b1)
                         (not (= P8 #b0))
                         (= F #b0)
                         (not ((_ bit2bool 0) G)))
                     (or (not (= W3 #b0))
                         (not ((_ bit2bool 0) G))
                         (not ((_ bit2bool 0) P8))
                         (not (= S4 #b1)))
                     (or ((_ bit2bool 31) D2)
                         (not ((_ bit2bool 6) U3))
                         (= ((_ extract 30 28) D2) #b111)
                         (not (= S4 #b1)))
                     (or (= ((_ extract 3 1) U3) #b111)
                         (not ((_ bit2bool 0) P8))
                         (not (= W3 #b1))
                         (not (= N8 #b0))
                         (= ((_ extract 26 25) D2) #b11)
                         (not (= S4 #b1)))
                     (or ((_ bit2bool 0) G)
                         (not ((_ bit2bool 0) P8))
                         (not (= N8 #b1))
                         (not (= S4 #b1)))
                     a!8
                     (or (= F #b0)
                         ((_ bit2bool 31) D2)
                         ((_ bit2bool 0) N1)
                         (not (= S4 #b1)))
                     (or (= A6 #b0)
                         ((_ bit2bool 0) G)
                         (not ((_ bit2bool 0) P8))
                         (not (= W3 #b1))
                         (= ((_ extract 26 23) D2) #x7)
                         (not (= S4 #b1))))))
       (= (INV!slice!1 A
                       B
                       C
                       D
                       E
                       F
                       G
                       H
                       I
                       J
                       K
                       L
                       M
                       N
                       O
                       P
                       Q
                       R
                       S
                       T
                       U
                       V
                       W
                       X
                       Y
                       Z
                       A1
                       B1
                       C1
                       D1
                       E1
                       F1
                       G1
                       H1
                       I1
                       J1
                       K1
                       L1
                       M1
                       N1
                       O1
                       P1
                       Q1
                       R1
                       S1
                       T1
                       U1
                       V1
                       W1
                       X1
                       Y1
                       Z1
                       A2
                       B2
                       C2
                       D2
                       E2
                       F2
                       G2
                       H2
                       I2
                       J2
                       K2
                       L2
                       M2
                       N2
                       O2
                       P2
                       Q2
                       R2
                       S2
                       T2
                       U2
                       V2
                       W2
                       X2
                       Y2
                       Z2
                       A3
                       B3
                       C3
                       D3
                       E3
                       F3
                       G3
                       H3
                       I3
                       J3
                       K3
                       L3
                       M3
                       N3
                       O3
                       P3
                       Q3
                       R3
                       S3
                       T3
                       U3
                       V3
                       W3
                       X3
                       Y3
                       Z3
                       A4
                       B4
                       C4
                       D4
                       E4
                       F4
                       G4
                       H4
                       I4
                       J4
                       K4
                       L4
                       M4
                       N4
                       O4
                       P4
                       Q4
                       R4
                       S4
                       T4
                       U4
                       V4
                       W4
                       X4
                       Y4
                       Z4
                       A5
                       B5
                       C5
                       D5
                       E5
                       F5
                       G5
                       H5
                       I5
                       J5
                       K5
                       L5
                       M5
                       N5
                       O5
                       P5
                       Q5
                       R5
                       S5
                       T5
                       U5
                       V5
                       W5
                       X5
                       Y5
                       Z5
                       A6
                       B6
                       C6
                       D6
                       E6
                       F6
                       G6
                       H6
                       I6
                       J6
                       K6
                       L6
                       M6
                       N6
                       O6
                       P6
                       Q6
                       R6
                       S6
                       T6
                       U6
                       V6
                       W6
                       X6
                       Y6
                       Z6
                       A7
                       B7
                       C7
                       D7
                       E7
                       F7
                       G7
                       H7
                       I7
                       J7
                       K7
                       L7
                       M7
                       N7
                       O7
                       P7
                       Q7
                       R7
                       S7
                       T7
                       U7
                       V7
                       W7
                       X7
                       Y7
                       Z7
                       A8
                       B8
                       C8
                       D8
                       E8
                       F8
                       G8
                       H8
                       I8
                       J8
                       K8
                       L8
                       M8
                       N8
                       O8
                       P8
                       Q8
                       R8
                       S8
                       T8
                       U8
                       V8
                       W8
                       X8
                       Y8
                       Z8
                       A9
                       B9
                       C9
                       D9
                       E9
                       F9
                       G9
                       H9
                       I9
                       J9
                       K9
                       L9
                       M9
                       N9
                       O9
                       P9
                       Q9
                       R9
                       S9
                       T9
                       U9
                       V9
                       W9
                       X9
                       Y9
                       Z9
                       A10
                       B10
                       C10
                       D10
                       E10
                       F10
                       G10
                       H10)
          a!9)))
     :weight 0))
